\ This file has been generated by DOcplex
\ ENCODING=ISO-8859-1
\Problem name: random_problem.lp

Minimize
 obj: - 492 x0 - 246 x1 - 123 x2 - 164 x3 - 82 x4 - 41 x5 + 1244 x6 + 622 x7
      + 311 x8 + [ 7744 x0^2 + 7744 x0*x1 + 3872 x0*x2 - 1920 x0*x3 - 960 x0*x4
      - 480 x0*x5 + 2048 x0*x6 + 1024 x0*x7 + 512 x0*x8 + 1936 x1^2 + 1936 x1*x2
      - 960 x1*x3 - 480 x1*x4 - 240 x1*x5 + 1024 x1*x6 + 512 x1*x7 + 256 x1*x8
      + 484 x2^2 - 480 x2*x3 - 240 x2*x4 - 120 x2*x5 + 512 x2*x6 + 256 x2*x7
      + 128 x2*x8 + 1408 x3^2 + 1408 x3*x4 + 704 x3*x5 + 896 x3*x6 + 448 x3*x7
      + 224 x3*x8 + 352 x4^2 + 352 x4*x5 + 448 x4*x6 + 224 x4*x7 + 112 x4*x8
      + 88 x5^2 + 224 x5*x6 + 112 x5*x7 + 56 x5*x8 + 7136 x6^2 + 7136 x6*x7
      + 3568 x6*x8 + 1784 x7^2 + 1784 x7*x8 + 446 x8^2 ]/2
Subject To
 c0: 4 x0 + 2 x1 + x2 + 4 x3 + 2 x4 + x5 + 4 x6 + 2 x7 + x8 = 7

Bounds
 0 <= x0 <= 1
 0 <= x1 <= 1
 0 <= x2 <= 1
 0 <= x3 <= 1
 0 <= x4 <= 1
 0 <= x5 <= 1
 0 <= x6 <= 1
 0 <= x7 <= 1
 0 <= x8 <= 1

Binaries
 x0 x1 x2 x3 x4 x5 x6 x7 x8
End
